&control
calculation = 'relax'
prefix = 'layer'
forc_conv_thr = 0.001,
pseudo_dir = '/storage/scratch2/nk0320/2D_materials/SSSP_efficiency_pseudos/'
outdir = './'
wfcdir = './'
max_seconds = 169200
nstep = 500
/
&system
nspin = 1,
ecutwfc = 45,
nat = 35
occupations = 'smearing'
ibrav = 0,
degauss = 0.01
smearing = 'gaussian'
tot_charge = 0.0
ntyp = 2
ecutrho = 400,
input_dft = "vdw-df2-c09"
/
&electrons
electron_maxstep = 200,
conv_thr = 1e-09,
mixing_mode = 'local-TF'
mixing_beta = 0.7
/
&ions
ion_dynamics = 'bfgs',

/
&cell
cell_dynamics = 'bfgs',
cell_dofree = 'all'
/
ATOMIC_SPECIES
Mo 95.94  Mo_ONCV_PBE-1.0.oncvpsp.upf
S 32.065  s_pbe_v1.4.uspp.F.UPF
ATOMIC_POSITIONS {crystal}
Mo  0.8988  0.3569  0.1601    
S  0.0754  0.2913  0.2283    
S  0.0754  0.2896  0.0922    
Mo  0.0314  0.6217  0.1593    
S  0.8768  0.5235  0.2276    
S  0.8768  0.5218  0.0916    
Mo  0.8329  0.8536  0.1587    
S  0.0095  0.788  0.2269    
S  0.0094  0.7863  0.0908    
Mo  0.9656  0.1184  0.1579    
S  0.8109  0.0202  0.2262    
S  0.8109  0.0185  0.0902    
Mo  0.5677  0.324  0.1602    
S  0.7443  0.2585  0.2284    
S  0.7443  0.2567  0.0923    
Mo  0.7003  0.5888  0.1594    
S  0.5457  0.4889  0.0917    
Mo  0.5018  0.8207  0.1587    
S  0.6783  0.7551  0.227    
S  0.6783  0.7534  0.0909    
Mo  0.6343  0.0855  0.158    
S  0.4798  0.9873  0.2263    
S  0.4798  0.9856  0.0903    
Mo  0.2366  0.2911  0.1603    
S  0.413  0.2256  0.2285    
S  0.413  0.2238  0.0924    
Mo  0.369  0.5559  0.1595    
S  0.2146  0.4577  0.2278    
S  0.2144  0.456  0.0918    
Mo  0.1706  0.7878  0.1589    
S  0.3472  0.7222  0.2271    
S  0.3472  0.7205  0.091    
Mo  0.3032  0.0526  0.1581    
S  0.1486  0.9544  0.2264    
S  0.1486  0.9526  0.0904    
CELL_PARAMETERS angstrom
9.45679  0.0  0.0  
0.0  10.9289  0.0  
0.0  0.0  23.0  
K_POINTS {automatic}
4 4 1 0 0 0
